1131
5580
4831
8401
4644
9631
1972
4599
8359
7052
7855
3235
7447
8793
6231
2869
1497
7245
5133
867
6148
1638
2305
4036
5018
2429
2780
8610
3565
2255
4592
2120
4914
809
1444
10114
673
607
874
2261
4815
1224
1576
2773
8836
4739
4301
6660
5361
438
